145
100000
32844
25850
61644
4674
46952
581
69889
36475
60578
36715
39654
17602
16624
58516
8526
48498
11936
74787
72178
54648
10498
38755
12852
46460
22469
16827
13966
35347
72798
37796
24002
35425
33806
9589
36087
54531
22312
33807
65984
6
66396
12241
18656
16752
17504
24407
29129
14467
17806
28761
10711
25003
60034
43377
16582
11940
10641
35660
46142
39422
15845
40286
8383
13789
43020
7407
33604
37978
29697
21604
35823
13716
64340
5197
51502
44323
27156
55677
21436
28400
44869
53155
24585
35162
37031
44901
3892
61067
50937
23304
444
30422
33864
9622
28045
65140
61245
49063
30111
40805
27860
28441
13039
26477
33081
399
43869
1248
30918
13572
55392
8234
62229
2025
40881
33435
18458
44608
5918
13501
23779
14708
74345
27202
3026
10867
71559
45764
17530
8300
32039
3688
7980
22560
21351
69578
35563
45119
27822
13394
32430
49781
35902
23337
3825
